(set-info :smt-lib-version 2.5)
(set-logic ALL)
(declare-const GEN1 String)
(declare-const GEN2 String)
(declare-const GEN3 String)
(declare-const GEN4 String)
(declare-const GEN5 String)
(declare-const GEN6 String)
(declare-const GEN7 String)
(declare-const GEN8 String)
(declare-const GEN9 String)
(declare-const BAV10 Bool)
(declare-const BAV11 Bool)
(declare-const BAV12 Bool)
(declare-fun x () String)
(declare-fun y () String)
(declare-fun z () String)
(assert (= x (str.replace GEN1 GEN2 GEN3)))
(assert (= y (str.replace GEN4 GEN5 GEN6)))
(assert (= z (str.replace GEN7 GEN8 GEN9)))
(assert (= BAV10 (= x (str.replace GEN1 GEN2 GEN3))))
(assert (= BAV11 (= y (str.replace GEN4 GEN5 GEN6))))
(assert (= BAV12 (= z (str.replace GEN7 GEN8 GEN9))))
(check-sat)
(get-model)